NAME : single
TYPE : ATSP
DIMENSION : 12
EDGE_WEIGHT_TYPE : EXPLICIT
EDGE_WEIGHT_FORMAT : FULL_MATRIX
EDGE_WEIGHT_SECTION
0 1339 1361 1461 1495 1484 1417 1456 1517 1349 1395 293 
0 0 24 161 224 237 103 146 208 121 94 125000 
0 24 0 142 209 224 83 127 189 105 134 1355 
0 161 142 0 87 107 59 39 100 186 282 1457 
0 224 209 87 0 22 134 107 92 246 333 1410 
0 237 224 107 22 0 151 125 79 258 351 1489 
0 103 83 59 134 151 0 63 124 128 218 1487 
0 146 127 39 107 125 63 0 76 172 253 1424 
0 208 189 100 92 79 124 76 0 232 302 125000 
0 121 105 186 246 258 128 172 232 0 70 1250 
0 94 134 282 333 351 218 253 302 70 0 1216 
0 125000 1355 1457 1410 1489 1487 1424 125000 1250 1216 0 
EOF